; SWAP1 DUP1 MLOAD SWAP2 LT POP => POP MLOAD
(set-option :produce-proofs true)
; 
(set-info :status unknown)
(declare-fun storage_t ((_ BitVec 256) (_ BitVec 256) (_ BitVec 256) Int (_ BitVec 256)) (_ BitVec 256))
(declare-fun storage_s ((_ BitVec 256) (_ BitVec 256) (_ BitVec 256) Int (_ BitVec 256)) (_ BitVec 256))
(declare-fun exc_halt_t (Int) Bool)
(declare-fun exc_halt_s (Int) Bool)
(declare-fun sc_t (Int) (_ BitVec 6))
(declare-fun stack_t ((_ BitVec 256) (_ BitVec 256) (_ BitVec 256) Int (_ BitVec 6)) (_ BitVec 256))
(declare-fun stack_s ((_ BitVec 256) (_ BitVec 256) (_ BitVec 256) Int (_ BitVec 6)) (_ BitVec 256))
(declare-fun sc_s (Int) (_ BitVec 6))
(declare-fun used_gas_t ((_ BitVec 256) (_ BitVec 256) (_ BitVec 256) Int) Int)
(declare-fun used_gas_s ((_ BitVec 256) (_ BitVec 256) (_ BitVec 256) Int) Int)
(declare-fun f_MLOAD ((_ BitVec 256) (_ BitVec 256) (_ BitVec 256) (_ BitVec 256)) (_ BitVec 256))
(assert
 (exists ((x_0 (_ BitVec 256)) (x_1 (_ BitVec 256)) (x_MLOAD_0 (_ BitVec 256)) )(let (($x996 (forall ((w (_ BitVec 256)) )(let ((?x11015 (storage_t x_0 x_1 x_MLOAD_0 2 w)))
 (let ((?x7703 (storage_s x_0 x_1 x_MLOAD_0 6 w)))
 (= ?x7703 ?x11015))))
 ))
 (let (($x903 (exc_halt_t 2)))
 (let (($x772 (exc_halt_s 6)))
 (let (($x1608 (= $x772 $x903)))
 (let (($x6594 (forall ((n (_ BitVec 6)) )(let ((?x4056 (sc_t 2)))
 (let (($x4536 (bvsle ?x4056 n)))
 (let ((?x11099 (stack_t x_0 x_1 x_MLOAD_0 2 n)))
 (let ((?x49 (stack_s x_0 x_1 x_MLOAD_0 6 n)))
 (let (($x645 (= ?x49 ?x11099)))
 (or $x645 $x4536)))))))
 ))
 (let ((?x4056 (sc_t 2)))
 (let ((?x926 (sc_s 6)))
 (let (($x7650 (= ?x926 ?x4056)))
 (let ((?x11035 (used_gas_t x_0 x_1 x_MLOAD_0 0)))
 (let ((?x5283 (used_gas_s x_0 x_1 x_MLOAD_0 0)))
 (let (($x10930 (= ?x5283 ?x11035)))
 (let (($x10418 (forall ((w (_ BitVec 256)) )(let ((?x11004 (storage_t x_0 x_1 x_MLOAD_0 0 w)))
 (let ((?x11030 (storage_s x_0 x_1 x_MLOAD_0 0 w)))
 (= ?x11030 ?x11004))))
 ))
 (let (($x56 (exc_halt_t 0)))
 (let (($x57 (exc_halt_s 0)))
 (let (($x58 (= $x57 $x56)))
 (let (($x8657 (forall ((n (_ BitVec 6)) )(let ((?x10575 (stack_t x_0 x_1 x_MLOAD_0 0 n)))
 (let ((?x1500 (stack_s x_0 x_1 x_MLOAD_0 0 n)))
 (let (($x10408 (= ?x1500 ?x10575)))
 (let ((?x63 (sc_t 0)))
 (let (($x4561 (bvsle ?x63 n)))
 (or $x4561 $x10408)))))))
 ))
 (let ((?x63 (sc_t 0)))
 (let ((?x72 (sc_s 0)))
 (let (($x73 (= ?x72 ?x63)))
 (let (($x7852 (= $x903 (or (exc_halt_t 1) (not (bvsle (_ bv0 6) (bvadd (_ bv63 6) (sc_t 1))))))))
 (let (($x8444 (forall ((w (_ BitVec 256)) )(let ((?x584 (storage_t x_0 x_1 x_MLOAD_0 1 w)))
 (let ((?x11015 (storage_t x_0 x_1 x_MLOAD_0 2 w)))
 (= ?x11015 ?x584))))
 ))
 (let (($x812 (forall ((n (_ BitVec 6)) )(let ((?x4023 (sc_t 1)))
 (let ((?x7954 (bvadd (_ bv63 6) ?x4023)))
 (let (($x7853 (bvsle ?x7954 n)))
 (let ((?x1333 (stack_t x_0 x_1 x_MLOAD_0 1 n)))
 (let ((?x11099 (stack_t x_0 x_1 x_MLOAD_0 2 n)))
 (let (($x956 (= ?x11099 ?x1333)))
 (or $x956 $x7853))))))))
 ))
 (let ((?x4023 (sc_t 1)))
 (let (($x8770 (= ?x4056 ?x4023)))
 (let (($x2842 (= (used_gas_t x_0 x_1 x_MLOAD_0 2) (+ 3 (used_gas_t x_0 x_1 x_MLOAD_0 1)))))
 (let ((?x6780 (f_MLOAD x_0 x_1 x_MLOAD_0 (stack_t x_0 x_1 x_MLOAD_0 1 (bvadd (_ bv63 6) ?x4023)))))
 (let (($x1920 (exc_halt_t 1)))
 (let (($x822 (= $x1920 (or $x56 (not (bvsle (_ bv0 6) (bvadd (_ bv63 6) ?x63)))))))
 (let (($x1679 (forall ((w (_ BitVec 256)) )(let ((?x11004 (storage_t x_0 x_1 x_MLOAD_0 0 w)))
 (let ((?x584 (storage_t x_0 x_1 x_MLOAD_0 1 w)))
 (= ?x584 ?x11004))))
 ))
 (let (($x8842 (forall ((n (_ BitVec 6)) )(let ((?x10575 (stack_t x_0 x_1 x_MLOAD_0 0 n)))
 (let ((?x1333 (stack_t x_0 x_1 x_MLOAD_0 1 n)))
 (let (($x10834 (= ?x1333 ?x10575)))
 (let ((?x63 (sc_t 0)))
 (let ((?x741 (bvadd (_ bv63 6) ?x63)))
 (let (($x9323 (bvsle ?x741 n)))
 (or $x9323 $x10834))))))))
 ))
 (let ((?x741 (bvadd (_ bv63 6) ?x63)))
 (let (($x4703 (= ?x4023 ?x741)))
 (let (($x304 (= $x772 (or (exc_halt_s 5) (not (bvsle (_ bv0 6) (bvadd (_ bv63 6) (sc_s 5))))))))
 (let (($x1152 (forall ((w (_ BitVec 256)) )(let ((?x11055 (storage_s x_0 x_1 x_MLOAD_0 5 w)))
 (let ((?x7703 (storage_s x_0 x_1 x_MLOAD_0 6 w)))
 (= ?x7703 ?x11055))))
 ))
 (let (($x723 (forall ((n (_ BitVec 6)) )(let ((?x805 (sc_s 5)))
 (let ((?x10909 (bvadd (_ bv63 6) ?x805)))
 (let (($x4369 (bvsle ?x10909 n)))
 (let ((?x3033 (stack_s x_0 x_1 x_MLOAD_0 5 n)))
 (let ((?x49 (stack_s x_0 x_1 x_MLOAD_0 6 n)))
 (or (= ?x49 ?x3033) $x4369)))))))
 ))
 (let ((?x805 (sc_s 5)))
 (let ((?x10909 (bvadd (_ bv63 6) ?x805)))
 (let (($x4748 (= ?x926 ?x10909)))
 (let (($x1064 (= (used_gas_s x_0 x_1 x_MLOAD_0 6) (+ 2 (used_gas_s x_0 x_1 x_MLOAD_0 5)))))
 (let (($x3979 (exc_halt_s 5)))
 (let (($x4848 (= $x3979 (or (exc_halt_s 4) (not (bvsle (_ bv0 6) (bvadd (_ bv62 6) (sc_s 4))))))))
 (let (($x10670 (forall ((w (_ BitVec 256)) )(let ((?x10939 (storage_s x_0 x_1 x_MLOAD_0 4 w)))
 (let ((?x11055 (storage_s x_0 x_1 x_MLOAD_0 5 w)))
 (= ?x11055 ?x10939))))
 ))
 (let (($x4491 (forall ((n (_ BitVec 6)) )(let ((?x4305 (sc_s 4)))
 (let ((?x803 (bvadd (_ bv62 6) ?x4305)))
 (let (($x10926 (bvsle ?x803 n)))
 (let ((?x8375 (stack_s x_0 x_1 x_MLOAD_0 4 n)))
 (let ((?x3033 (stack_s x_0 x_1 x_MLOAD_0 5 n)))
 (or (= ?x3033 ?x8375) $x10926)))))))
 ))
 (let ((?x4305 (sc_s 4)))
 (let ((?x10988 (bvadd (_ bv63 6) ?x4305)))
 (let (($x4871 (= ?x805 ?x10988)))
 (let ((?x31 (used_gas_s x_0 x_1 x_MLOAD_0 5)))
 (let (($x4495 (= ?x31 (+ 3 (used_gas_s x_0 x_1 x_MLOAD_0 4)))))
 (let ((?x201 (stack_s x_0 x_1 x_MLOAD_0 4 ?x10988)))
 (let ((?x803 (bvadd (_ bv62 6) ?x4305)))
 (let ((?x5818 (stack_s x_0 x_1 x_MLOAD_0 4 ?x803)))
 (let ((?x2110 (stack_s x_0 x_1 x_MLOAD_0 5 ?x10909)))
 (let (($x64 (exc_halt_s 4)))
 (let (($x536 (= $x64 (or (exc_halt_s 3) (not (bvsle (_ bv0 6) (bvadd (_ bv61 6) (sc_s 3))))))))
 (let (($x1182 (forall ((w (_ BitVec 256)) )(let ((?x10760 (storage_s x_0 x_1 x_MLOAD_0 3 w)))
 (let ((?x10939 (storage_s x_0 x_1 x_MLOAD_0 4 w)))
 (= ?x10939 ?x10760))))
 ))
 (let (($x1396 (forall ((n (_ BitVec 6)) )(let ((?x5253 (stack_s x_0 x_1 x_MLOAD_0 3 n)))
 (let ((?x8375 (stack_s x_0 x_1 x_MLOAD_0 4 n)))
 (let (($x10720 (= ?x8375 ?x5253)))
 (let ((?x275 (sc_s 3)))
 (let ((?x10954 (bvadd (_ bv61 6) ?x275)))
 (let (($x9554 (bvsle ?x10954 n)))
 (or $x9554 $x10720))))))))
 ))
 (let ((?x275 (sc_s 3)))
 (let (($x5422 (= ?x4305 ?x275)))
 (let ((?x3150 (used_gas_s x_0 x_1 x_MLOAD_0 4)))
 (let ((?x11143 (bvadd (_ bv63 6) ?x275)))
 (let ((?x357 (stack_s x_0 x_1 x_MLOAD_0 3 ?x11143)))
 (let (($x292 (exc_halt_s 3)))
 (let (($x5559 (= $x292 (or (exc_halt_s 2) (not (bvsle (_ bv0 6) (bvadd (_ bv63 6) (sc_s 2))))))))
 (let (($x230 (forall ((w (_ BitVec 256)) )(let ((?x4685 (storage_s x_0 x_1 x_MLOAD_0 2 w)))
 (let ((?x10760 (storage_s x_0 x_1 x_MLOAD_0 3 w)))
 (= ?x10760 ?x4685))))
 ))
 (let (($x6730 (forall ((n (_ BitVec 6)) )(let ((?x10846 (stack_s x_0 x_1 x_MLOAD_0 2 n)))
 (let ((?x5253 (stack_s x_0 x_1 x_MLOAD_0 3 n)))
 (let (($x10970 (= ?x5253 ?x10846)))
 (let ((?x218 (sc_s 2)))
 (let ((?x10959 (bvadd (_ bv63 6) ?x218)))
 (let (($x5523 (bvsle ?x10959 n)))
 (or $x5523 $x10970))))))))
 ))
 (let ((?x218 (sc_s 2)))
 (let (($x3833 (= ?x275 ?x218)))
 (let ((?x10641 (used_gas_s x_0 x_1 x_MLOAD_0 3)))
 (let (($x223 (= ?x10641 (+ 3 (used_gas_s x_0 x_1 x_MLOAD_0 2)))))
 (let ((?x10959 (bvadd (_ bv63 6) ?x218)))
 (let ((?x8837 (stack_s x_0 x_1 x_MLOAD_0 2 ?x10959)))
 (let (($x8239 (not (bvsle (_ bv0 6) (bvadd (_ bv63 6) (sc_s 1))))))
 (let (($x4770 (not (= ((_ extract 6 6) (bvadd (_ bv1 7) (concat (_ bv0 1) (sc_s 1)))) (_ bv0 1)))))
 (let (($x189 (exc_halt_s 1)))
 (let (($x247 (exc_halt_s 2)))
 (let (($x6814 (= $x247 (or $x189 $x4770 $x8239))))
 (let (($x264 (forall ((w (_ BitVec 256)) )(let ((?x6583 (storage_s x_0 x_1 x_MLOAD_0 1 w)))
 (let ((?x4685 (storage_s x_0 x_1 x_MLOAD_0 2 w)))
 (= ?x4685 ?x6583))))
 ))
 (let (($x1263 (forall ((n (_ BitVec 6)) )(let ((?x154 (sc_s 1)))
 (let ((?x11178 (bvadd (_ bv63 6) ?x154)))
 (let (($x6612 (bvsle ?x11178 n)))
 (let ((?x4947 (stack_s x_0 x_1 x_MLOAD_0 1 n)))
 (let ((?x10846 (stack_s x_0 x_1 x_MLOAD_0 2 n)))
 (let (($x4795 (= ?x10846 ?x4947)))
 (or $x4795 $x6612))))))))
 ))
 (let (($x10803 (= ?x218 (bvadd (_ bv1 6) (sc_s 1)))))
 (let ((?x11176 (used_gas_s x_0 x_1 x_MLOAD_0 2)))
 (let (($x10802 (= ?x11176 (+ 3 (used_gas_s x_0 x_1 x_MLOAD_0 1)))))
 (let ((?x154 (sc_s 1)))
 (let ((?x11178 (bvadd (_ bv63 6) ?x154)))
 (let ((?x11205 (stack_s x_0 x_1 x_MLOAD_0 1 ?x11178)))
 (let (($x687 (= (stack_s x_0 x_1 x_MLOAD_0 2 ?x11178) ?x11205)))
 (let (($x7697 (= $x189 (or $x57 (not (bvsle (_ bv0 6) (bvadd (_ bv62 6) ?x72)))))))
 (let (($x3743 (forall ((w (_ BitVec 256)) )(let ((?x11030 (storage_s x_0 x_1 x_MLOAD_0 0 w)))
 (let ((?x6583 (storage_s x_0 x_1 x_MLOAD_0 1 w)))
 (= ?x6583 ?x11030))))
 ))
 (let (($x8030 (forall ((n (_ BitVec 6)) )(let ((?x72 (sc_s 0)))
 (let ((?x11206 (bvadd (_ bv62 6) ?x72)))
 (let (($x10965 (bvsle ?x11206 n)))
 (let ((?x1500 (stack_s x_0 x_1 x_MLOAD_0 0 n)))
 (let ((?x4947 (stack_s x_0 x_1 x_MLOAD_0 1 n)))
 (or (= ?x4947 ?x1500) $x10965)))))))
 ))
 (let (($x94 (= ?x154 ?x72)))
 (let ((?x332 (used_gas_s x_0 x_1 x_MLOAD_0 1)))
 (let (($x5664 (= ?x332 (+ 3 ?x5283))))
 (let ((?x10482 (bvadd (_ bv63 6) ?x72)))
 (let ((?x10339 (stack_s x_0 x_1 x_MLOAD_0 0 ?x10482)))
 (let ((?x2469 (bvadd (_ bv62 6) ?x154)))
 (let ((?x10450 (stack_s x_0 x_1 x_MLOAD_0 1 ?x2469)))
 (let ((?x11206 (bvadd (_ bv62 6) ?x72)))
 (let ((?x4989 (stack_s x_0 x_1 x_MLOAD_0 0 ?x11206)))
 (let (($x5103 (= ?x11205 ?x4989)))
 (let (($x7778 (forall ((w0 (_ BitVec 256)) )(let ((?x665 (ite (= (stack_s x_0 x_1 x_MLOAD_0 2 (bvadd (_ bv63 6) (sc_s 2))) w0) x_MLOAD_0 (_ bv0 256))))
 (let ((?x1339 (f_MLOAD x_0 x_1 x_MLOAD_0 w0)))
 (= ?x1339 ?x665))))
 ))
 (let (($x7726 (forall ((w (_ BitVec 256)) )(let ((?x11030 (storage_s x_0 x_1 x_MLOAD_0 0 w)))
 (= ?x11030 (_ bv0 256))))
 ))
 (let (($x6268 (= ?x5283 0)))
 (let (($x11171 (not $x57)))
 (let (($x71 (= (stack_s x_0 x_1 x_MLOAD_0 0 (_ bv1 6)) x_1)))
 (let (($x4803 (= (stack_s x_0 x_1 x_MLOAD_0 0 (_ bv0 6)) x_0)))
 (let (($x5694 (= ?x72 (_ bv2 6))))
 (and $x5694 $x4803 $x71 $x11171 $x6268 $x7726 $x7778 $x5103 (= ?x10450 ?x10339) $x5664 $x94 $x8030 $x3743 $x7697 (= ?x8837 ?x11205) $x687 $x10802 $x10803 $x1263 $x264 $x6814 (= ?x357 (f_MLOAD x_0 x_1 x_MLOAD_0 ?x8837)) $x223 $x3833 $x6730 $x230 $x5559 (= ?x201 (stack_s x_0 x_1 x_MLOAD_0 3 (bvadd (_ bv61 6) ?x275))) (= (stack_s x_0 x_1 x_MLOAD_0 4 (bvadd (_ bv61 6) ?x4305)) ?x357) (= ?x5818 (stack_s x_0 x_1 x_MLOAD_0 3 (bvadd (_ bv62 6) ?x275))) (= ?x3150 (+ 3 ?x10641)) $x5422 $x1396 $x1182 $x536 (= ?x2110 (ite (bvule ?x5818 ?x201) (_ bv0 256) (_ bv1 256))) $x4495 $x4871 $x4491 $x10670 $x4848 $x1064 $x4748 $x723 $x1152 $x304 (= (used_gas_t x_0 x_1 x_MLOAD_0 1) (+ 2 ?x11035)) $x4703 $x8842 $x1679 $x822 (= (stack_t x_0 x_1 x_MLOAD_0 2 (bvadd (_ bv63 6) ?x4056)) ?x6780) $x2842 $x8770 $x812 $x8444 $x7852 $x73 $x8657 $x58 $x10418 $x10930 (not (and $x7650 $x6594 $x1608 $x996)))))))))))))))))))))))))))))))))))))))))))))))))))))))))))))))))))))))))))))))))))))))))))))))))))))))))))))
 )
(check-sat)
(get-proof)
